(set-option :produce-models true)
(set-logic QF_UF)
(declare-fun p23() Bool)
(declare-fun p59() Bool)
(declare-fun p53() Bool)
(declare-fun p16() Bool)
(declare-fun p43() Bool)
(declare-fun p47() Bool)
(declare-fun p64() Bool)
(declare-fun p19() Bool)
(declare-fun p3() Bool)
(declare-fun p62() Bool)
(declare-fun p61() Bool)
(declare-fun p66() Bool)
(declare-fun p56() Bool)
(declare-fun p46() Bool)
(declare-fun p14() Bool)
(declare-fun p22() Bool)
(declare-fun p45() Bool)
(declare-fun p26() Bool)
(declare-fun p69() Bool)
(declare-fun p25() Bool)
(declare-fun p49() Bool)
(declare-fun p52() Bool)
(declare-fun p54() Bool)
(declare-fun p27() Bool)
(declare-fun p68() Bool)
(declare-fun p12() Bool)
(declare-fun p34() Bool)
(declare-fun p67() Bool)
(declare-fun p5() Bool)
(declare-fun p10() Bool)
(declare-fun p18() Bool)
(declare-fun p55() Bool)
(declare-fun p2() Bool)
(declare-fun p42() Bool)
(declare-fun p1() Bool)
(declare-fun p65() Bool)
(declare-fun p51() Bool)
(declare-fun p40() Bool)
(declare-fun p21() Bool)
(declare-fun p30() Bool)
(declare-fun p24() Bool)
(declare-fun p38() Bool)
(declare-fun p44() Bool)
(declare-fun p41() Bool)
(declare-fun p31() Bool)
(declare-fun p17() Bool)
(declare-fun p32() Bool)
(declare-fun p29() Bool)
(declare-fun p58() Bool)
(declare-fun p20() Bool)
(declare-fun p48() Bool)
(declare-fun p11() Bool)
(declare-fun p6() Bool)
(declare-fun p50() Bool)
(declare-fun p0() Bool)
(declare-fun p35() Bool)
(declare-fun p9() Bool)
(declare-fun p63() Bool)
(declare-fun p33() Bool)
(declare-fun p57() Bool)
(declare-fun p39() Bool)
(declare-fun p8() Bool)
(declare-fun p13() Bool)
(declare-fun p4() Bool)
(declare-fun p37() Bool)
(declare-fun p36() Bool)
(declare-fun p15() Bool)
(declare-fun p7() Bool)
(declare-fun p28() Bool)
(declare-fun p60() Bool)
(assert
(and (or (not p23) (not p59) p53) (or p16 (not p43) (not p47)) (or (not p16) (not p64) p47) (or p43 (not p19) (not p3)) (or p62 p61 (not p61)) (or p66 (not p56) p46) (or (not p14) (not p22) p45) (or p26 (not p69) p25) (or p49 (not p52) p54) (or (not p27) p59 p68) (or (not p23) p12 p34) (or p67 (not p68) (not p16)) (or (not p34) (not p54) (not p45)) (or (not p5) (not p10) (not p18)) (or (not p55) p45 p2) (or p3 p42 p1) (or (not p65) (not p51) p40) (or (not p21) (not p30) p40) (or p45 p24 p67) (or p38 (not p66) (not p44)) (or (not p53) p41 (not p14)) (or (not p44) p31 (not p49)) (or p19 p17 (not p32)) (or (not p46) (not p19) p26) (or p21 p2 p38) (or p29 p58 p58) (or (not p20) p29 p23) (or p18 (not p48) p26) (or (not p2) (not p21) p49) (or (not p59) p11 p41) (or p6 (not p23) p29) (or (not p58) (not p21) (not p51)) (or (not p47) p65 p52) (or (not p17) (not p26) (not p17)) (or (not p50) (not p0) p23) (or (not p54) p27 p3) (or (not p41) p30 (not p48)) (or p69 p47 (not p25)) (or p51 p17 p44) (or (not p35) p43 p62) (or p54 (not p48) p51) (or p53 p10 p43) (or (not p53) (not p6) (not p59)) (or p49 (not p53) (not p35)) (or (not p65) (not p40) (not p0)) (or (not p30) p9 (not p63)) (or p62 (not p44) (not p16)) (or (not p47) (not p63) p33) (or p52 p43 (not p57)) (or p48 p51 (not p21)) (or (not p18) p39 (not p16)) (or p14 (not p68) p51) (or (not p35) p25 p68) (or (not p20) p44 p6) (or p6 p52 (not p16)) (or (not p35) p68 p63) (or (not p5) (not p8) p41) (or p31 p3 p67) (or (not p51) p64 p54) (or (not p30) p67 p13) (or (not p67) (not p63) (not p13)) (or p67 p43 (not p64)) (or (not p29) (not p69) (not p20)) (or p12 (not p30) p4) (or p63 (not p29) p6) (or (not p67) p20 p59) (or p49 (not p18) p37) (or p25 p11 p46) (or p36 p68 p31) (or (not p3) (not p11) p1) (or (not p15) (not p63) p17) (or (not p19) (not p25) (not p54)) (or p11 p62 p37) (or p30 p69 p56) (or p23 p7 p35) (or p1 p53 (not p1)) (or (not p68) (not p44) p7) (or p67 p27 (not p49)) (or p36 p24 p65) (or (not p12) p25 p26) (or (not p56) p49 p32) (or (not p3) p44 (not p63)) (or p27 (not p29) p36) (or p10 (not p65) p38) (or p29 p5 p43) (or (not p54) (not p51) p5) (or p66 p52 (not p62)) (or (not p24) (not p17) p26) (or (not p52) p68 (not p5)) (or p18 (not p47) p16) (or p30 p9 p46) (or p26 (not p64) (not p1)) (or p11 (not p48) (not p21)) (or p15 p21 p20) (or (not p68) p4 p53) (or (not p42) p10 p11) (or (not p34) (not p69) p20) (or p27 (not p10) p59) (or p2 p34 p63) (or (not p39) p69 (not p45)) (or p18 (not p45) p39) (or p27 p30 p51) (or (not p59) (not p28) p43) (or p15 (not p21) (not p43)) (or p5 (not p58) p32) (or p63 (not p27) (not p43)) (or p14 p61 p39) (or p36 p13 (not p59)) (or p43 p21 p46) (or (not p11) (not p51) p17) (or p64 p9 p0) (or p7 p10 p49) (or (not p26) (not p2) (not p28)) (or p51 p68 p44) (or p9 p32 (not p48)) (or (not p4) (not p10) p5) (or p37 p0 (not p12)) (or p22 p62 p14) (or p14 (not p47) (not p5)) (or (not p32) (not p44) p24) (or p31 p66 p65) (or (not p55) p62 p25) (or (not p48) p44 p23) (or p49 (not p8) p33) (or (not p25) (not p52) (not p50)) (or p65 (not p19) p38) (or (not p48) p54 p47) (or (not p39) (not p55) (not p42)) (or p14 p13 (not p50)) (or (not p55) (not p49) p53) (or p13 p51 (not p3)) (or (not p24) (not p68) p55) (or p23 (not p1) (not p14)) (or p49 (not p6) p5) (or p39 p57 (not p40)) (or p9 p1 p59) (or p59 p2 p17) (or p31 p0 p31) (or (not p12) (not p38) p29) (or (not p46) (not p5) p67) (or p23 (not p62) p31) (or (not p52) p4 (not p10)) (or (not p10) (not p1) (not p40)) (or p43 p69 (not p32)) (or (not p66) (not p68) (not p38)) (or (not p65) p25 (not p44)) (or p63 p35 p15) (or p68 p38 p56) (or (not p37) (not p59) p29) (or (not p54) (not p56) (not p57)) (or (not p0) p60 (not p4)) (or (not p36) (not p39) p60) (or (not p12) (not p7) (not p63)) (or p30 p8 p13) (or p5 (not p7) (not p51)) (or (not p67) p31 p14) (or (not p67) p62 (not p19)) (or p15 p39 (not p67)) (or p3 (not p68) p46) (or (not p13) p1 p55) (or p42 p42 (not p43)) (or p20 p51 (not p21)) (or (not p31) p49 (not p17)) (or p48 (not p27) p58) (or (not p16) p8 (not p50)) (or p25 p69 (not p4)) (or p55 (not p41) (not p24)) (or (not p6) (not p53) p48) (or (not p23) p67 p19) (or (not p37) (not p14) p17) (or p3 p8 p65) (or (not p25) (not p67) (not p38)) (or p39 (not p1) p38) (or p43 p64 p14) (or (not p15) (not p20) (not p49)) (or (not p44) (not p24) p54) (or p68 (not p48) (not p21)) (or p4 (not p21) p7) (or p51 p20 (not p16)) (or p11 p62 (not p33)) (or (not p50) p34 (not p10)) (or (not p29) p24 (not p31)) (or p64 (not p30) (not p3)) (or (not p60) (not p8) (not p28)) (or (not p7) (not p39) (not p67)) (or (not p56) (not p43) p41) (or p50 p64 p12) (or (not p67) (not p24) (not p47)) (or (not p52) p35 (not p32)) (or (not p8) (not p17) (not p40)) (or (not p25) p59 (not p18)) (or p40 p17 (not p33)) (or p17 (not p25) (not p18)) (or (not p2) (not p46) (not p35)) (or p7 p40 p42) (or p19 p57 p46) (or p39 (not p10) (not p61)) (or p15 (not p11) (not p51)) (or p1 (not p10) p9) (or p57 p69 p26) (or p5 p53 p43) (or p40 p65 p17) (or p12 (not p25) (not p67)) (or p52 (not p40) (not p45)) (or (not p60) (not p55) p4) (or (not p28) (not p31) p54) (or (not p7) p31 (not p62)) (or (not p8) (not p67) p63) (or p20 p14 (not p26)) (or p13 (not p60) (not p57)) (or (not p46) p65 (not p67)) (or (not p10) p2 (not p62)) (or p3 p16 (not p48)) (or (not p14) (not p40) (not p50)) (or p47 (not p6) p21) (or (not p18) (not p47) p46) (or (not p60) p6 p44) (or (not p11) p3 (not p57)) (or p50 p22 (not p13)) (or p50 (not p50) p61) (or p31 p33 (not p32)) (or p20 p25 p2) (or p43 p19 (not p60)) (or (not p32) p26 p16) (or (not p13) p39 (not p38)) (or (not p48) (not p1) p11) (or (not p66) (not p63) p2) (or p59 (not p62) (not p0)) (or p20 (not p35) (not p31)) (or p14 p8 (not p43)) (or p25 p13 p17) (or p11 (not p7) (not p52)) (or (not p12) (not p36) p68) (or p7 p53 (not p13)) (or (not p64) (not p0) p60) (or (not p34) p49 (not p28)) (or p11 p35 (not p69)) (or (not p27) p20 p18) (or (not p38) p45 (not p14)) (or p8 p24 p13) (or (not p12) p19 (not p69)) (or (not p29) (not p63) (not p56)) (or p17 p58 (not p60)) (or p31 (not p44) (not p61)) (or (not p66) (not p34) p39) (or p29 p5 p49) (or (not p3) p51 p23) (or p31 (not p66) (not p17)) (or (not p43) p62 p2) (or p56 (not p58) p45) (or p61 p43 (not p58)) (or p58 (not p0) p3) (or p37 (not p47) (not p9)) (or (not p12) p51 p52) (or p3 p51 p55) (or p8 p36 p63) (or (not p18) p32 p56) (or p4 p43 (not p51)) (or (not p46) p7 (not p29)) (or (not p34) (not p54) p19) (or (not p51) (not p61) (not p47)) (or (not p48) p55 (not p13)) (or p12 (not p2) p52) (or (not p35) (not p25) p56) (or p53 p14 (not p7)) (or (not p19) (not p34) p51) (or p15 (not p13) p47) (or p1 p51 p23) (or p10 p28 (not p19)) (or p45 (not p10) (not p37)) (or p4 (not p4) p33) (or (not p31) (not p55) p65) (or (not p60) (not p47) (not p3)) (or (not p27) (not p27) (not p60)) (or (not p58) p54 p18) (or p26 (not p29) p62) (or p4 p29 p10) (or (not p15) (not p21) (not p3)) (or (not p64) p68 p53) (or p69 (not p63) (not p40)) (or p3 p7 p34) (or p40 p48 p59) (or (not p62) (not p62) p29) (or (not p54) (not p11) (not p50)) (or (not p19) (not p50) p43) (or p43 (not p13) (not p51)) (or p4 p20 p2) (or p57 (not p22) (not p9)) (or (not p47) (not p47) p28) (or (not p33) (not p59) (not p5)) (or p53 (not p48) p8) (or (not p27) p18 (not p13)) (or p44 (not p58) (not p55)) (or p68 p28 p2) (or (not p69) (not p13) (not p54)) (or (not p50) p24 (not p31)) (or p68 (not p8) p9))
)
(check-sat)
(get-model)
